6913
149,125,22,104,4,115,150,21,64,44,71,45,128,68,119,91,106,13,74,123,136,112,145,31,27,117,140,17,66,60,57,39,130,148,11,61,36,69,127,118,24,53,40,139,47,120,42,9,28,6,37,2,19,99,114,102,108,70,135,86,29,81,58,55,50,137,132,65,85,142,18,75,26,83,141,25,110,20,51,109,43,12,116,101,41,129,144,49,147,72,80,14,122,77,131,32,23,38,67,134,138,54,92,46,90,56,146,124,97,143,100,5,107,95,82,103,98,1,87,76,73,48,63,34,7,84,8,89,30,96,35,93,52,126,33,105,111,16,133,15,78,59,79,121,88,94,10,113,3,62,149
